2000 1170
150
0.0,0.0 990.0,0.0 990.0,676.0 0.0,676.0
0.0,0.0 399.0,0.0 399.0,578.0 0.0,578.0
0.0,0.0 1535.0,0.0 1535.0,991.0 0.0,991.0
0.0,0.0 1636.0,0.0 1636.0,32.0 0.0,32.0
0.0,0.0 1897.0,0.0 1897.0,599.0 0.0,599.0
0.0,0.0 817.0,0.0 817.0,1054.0 0.0,1054.0
0.0,0.0 1318.0,0.0 1318.0,483.0 0.0,483.0
0.0,0.0 878.0,0.0 878.0,160.0 0.0,160.0
0.0,0.0 91.0,0.0 91.0,716.0 0.0,716.0
0.0,0.0 13.0,0.0 13.0,556.0 0.0,556.0
0.0,0.0 586.0,0.0 586.0,970.0 0.0,970.0
0.0,0.0 204.0,0.0 204.0,523.0 0.0,523.0
0.0,0.0 1096.0,0.0 1096.0,329.0 0.0,329.0
0.0,0.0 1891.0,0.0 1891.0,719.0 0.0,719.0
0.0,0.0 329.0,0.0 329.0,421.0 0.0,421.0
0.0,0.0 1997.0,0.0 1997.0,1077.0 0.0,1077.0
0.0,0.0 567.0,0.0 567.0,914.0 0.0,914.0
0.0,0.0 1219.0,0.0 1219.0,668.0 0.0,668.0
0.0,0.0 1906.0,0.0 1906.0,41.0 0.0,41.0
0.0,0.0 292.0,0.0 292.0,509.0 0.0,509.0
0.0,0.0 177.0,0.0 177.0,481.0 0.0,481.0
0.0,0.0 1585.0,0.0 1585.0,270.0 0.0,270.0
0.0,0.0 422.0,0.0 422.0,818.0 0.0,818.0
0.0,0.0 84.0,0.0 84.0,311.0 0.0,311.0
0.0,0.0 960.0,0.0 960.0,811.0 0.0,811.0
0.0,0.0 177.0,0.0 177.0,1129.0 0.0,1129.0
0.0,0.0 1242.0,0.0 1242.0,556.0 0.0,556.0
0.0,0.0 1589.0,0.0 1589.0,393.0 0.0,393.0
0.0,0.0 273.0,0.0 273.0,112.0 0.0,112.0
0.0,0.0 1579.0,0.0 1579.0,578.0 0.0,578.0
0.0,0.0 1747.0,0.0 1747.0,219.0 0.0,219.0
0.0,0.0 189.0,0.0 189.0,1068.0 0.0,1068.0
0.0,0.0 514.0,0.0 514.0,594.0 0.0,594.0
0.0,0.0 1352.0,0.0 1352.0,891.0 0.0,891.0
0.0,0.0 327.0,0.0 327.0,110.0 0.0,110.0
0.0,0.0 616.0,0.0 616.0,87.0 0.0,87.0
0.0,0.0 1428.0,0.0 1428.0,740.0 0.0,740.0
0.0,0.0 546.0,0.0 546.0,991.0 0.0,991.0
0.0,0.0 306.0,0.0 306.0,1070.0 0.0,1070.0
0.0,0.0 849.0,0.0 849.0,537.0 0.0,537.0
0.0,0.0 89.0,0.0 89.0,701.0 0.0,701.0
0.0,0.0 983.0,0.0 983.0,1060.0 0.0,1060.0
0.0,0.0 526.0,0.0 526.0,292.0 0.0,292.0
0.0,0.0 981.0,0.0 981.0,816.0 0.0,816.0
0.0,0.0 918.0,0.0 918.0,321.0 0.0,321.0
0.0,0.0 1575.0,0.0 1575.0,934.0 0.0,934.0
0.0,0.0 1817.0,0.0 1817.0,462.0 0.0,462.0
0.0,0.0 630.0,0.0 630.0,740.0 0.0,740.0
0.0,0.0 274.0,0.0 274.0,1054.0 0.0,1054.0
0.0,0.0 129.0,0.0 129.0,12.0 0.0,12.0
0.0,0.0 1107.0,0.0 1107.0,195.0 0.0,195.0
0.0,0.0 1462.0,0.0 1462.0,865.0 0.0,865.0
0.0,0.0 1397.0,0.0 1397.0,312.0 0.0,312.0
0.0,0.0 457.0,0.0 457.0,142.0 0.0,142.0
0.0,0.0 412.0,0.0 412.0,684.0 0.0,684.0
0.0,0.0 1831.0,0.0 1831.0,1122.0 0.0,1122.0
0.0,0.0 249.0,0.0 249.0,403.0 0.0,403.0
0.0,0.0 117.0,0.0 117.0,635.0 0.0,635.0
0.0,0.0 666.0,0.0 666.0,103.0 0.0,103.0
0.0,0.0 689.0,0.0 689.0,397.0 0.0,397.0
0.0,0.0 92.0,0.0 92.0,444.0 0.0,444.0
0.0,0.0 58.0,0.0 58.0,393.0 0.0,393.0
0.0,0.0 400.0,0.0 400.0,429.0 0.0,429.0
0.0,0.0 1308.0,0.0 1308.0,383.0 0.0,383.0
0.0,0.0 1276.0,0.0 1276.0,1006.0 0.0,1006.0
0.0,0.0 707.0,0.0 707.0,27.0 0.0,27.0
0.0,0.0 1352.0,0.0 1352.0,935.0 0.0,935.0
0.0,0.0 1537.0,0.0 1537.0,290.0 0.0,290.0
0.0,0.0 1112.0,0.0 1112.0,229.0 0.0,229.0
0.0,0.0 522.0,0.0 522.0,457.0 0.0,457.0
0.0,0.0 314.0,0.0 314.0,459.0 0.0,459.0
0.0,0.0 892.0,0.0 892.0,74.0 0.0,74.0
0.0,0.0 1253.0,0.0 1253.0,1009.0 0.0,1009.0
0.0,0.0 1261.0,0.0 1261.0,1164.0 0.0,1164.0
0.0,0.0 1314.0,0.0 1314.0,1031.0 0.0,1031.0
0.0,0.0 1932.0,0.0 1932.0,988.0 0.0,988.0
0.0,0.0 1558.0,0.0 1558.0,786.0 0.0,786.0
0.0,0.0 1898.0,0.0 1898.0,85.0 0.0,85.0
0.0,0.0 349.0,0.0 349.0,140.0 0.0,140.0
0.0,0.0 273.0,0.0 273.0,64.0 0.0,64.0
0.0,0.0 627.0,0.0 627.0,754.0 0.0,754.0
0.0,0.0 1506.0,0.0 1506.0,534.0 0.0,534.0
0.0,0.0 1883.0,0.0 1883.0,727.0 0.0,727.0
0.0,0.0 781.0,0.0 781.0,263.0 0.0,263.0
0.0,0.0 851.0,0.0 851.0,162.0 0.0,162.0
0.0,0.0 1465.0,0.0 1465.0,88.0 0.0,88.0
0.0,0.0 590.0,0.0 590.0,1122.0 0.0,1122.0
0.0,0.0 1188.0,0.0 1188.0,206.0 0.0,206.0
0.0,0.0 609.0,0.0 609.0,617.0 0.0,617.0
0.0,0.0 1556.0,0.0 1556.0,153.0 0.0,153.0
0.0,0.0 1578.0,0.0 1578.0,787.0 0.0,787.0
0.0,0.0 1067.0,0.0 1067.0,1038.0 0.0,1038.0
0.0,0.0 1081.0,0.0 1081.0,393.0 0.0,393.0
0.0,0.0 1225.0,0.0 1225.0,550.0 0.0,550.0
0.0,0.0 595.0,0.0 595.0,388.0 0.0,388.0
0.0,0.0 1739.0,0.0 1739.0,424.0 0.0,424.0
0.0,0.0 891.0,0.0 891.0,444.0 0.0,444.0
0.0,0.0 306.0,0.0 306.0,638.0 0.0,638.0
0.0,0.0 1841.0,0.0 1841.0,410.0 0.0,410.0
0.0,0.0 1599.0,0.0 1599.0,24.0 0.0,24.0
0.0,0.0 455.0,0.0 455.0,159.0 0.0,159.0
0.0,0.0 1305.0,0.0 1305.0,1141.0 0.0,1141.0
0.0,0.0 622.0,0.0 622.0,712.0 0.0,712.0
0.0,0.0 593.0,0.0 593.0,616.0 0.0,616.0
0.0,0.0 1984.0,0.0 1984.0,846.0 0.0,846.0
0.0,0.0 1085.0,0.0 1085.0,1061.0 0.0,1061.0
0.0,0.0 1478.0,0.0 1478.0,778.0 0.0,778.0
0.0,0.0 337.0,0.0 337.0,332.0 0.0,332.0
0.0,0.0 41.0,0.0 41.0,588.0 0.0,588.0
0.0,0.0 1276.0,0.0 1276.0,1090.0 0.0,1090.0
0.0,0.0 1381.0,0.0 1381.0,652.0 0.0,652.0
0.0,0.0 29.0,0.0 29.0,767.0 0.0,767.0
0.0,0.0 346.0,0.0 346.0,247.0 0.0,247.0
0.0,0.0 822.0,0.0 822.0,1057.0 0.0,1057.0
0.0,0.0 1260.0,0.0 1260.0,892.0 0.0,892.0
0.0,0.0 825.0,0.0 825.0,860.0 0.0,860.0
0.0,0.0 1003.0,0.0 1003.0,200.0 0.0,200.0
0.0,0.0 1184.0,0.0 1184.0,1079.0 0.0,1079.0
0.0,0.0 1565.0,0.0 1565.0,273.0 0.0,273.0
0.0,0.0 713.0,0.0 713.0,48.0 0.0,48.0
0.0,0.0 470.0,0.0 470.0,1012.0 0.0,1012.0
0.0,0.0 349.0,0.0 349.0,950.0 0.0,950.0
0.0,0.0 393.0,0.0 393.0,1027.0 0.0,1027.0
0.0,0.0 1570.0,0.0 1570.0,1092.0 0.0,1092.0
0.0,0.0 1433.0,0.0 1433.0,382.0 0.0,382.0
0.0,0.0 598.0,0.0 598.0,194.0 0.0,194.0
0.0,0.0 1865.0,0.0 1865.0,467.0 0.0,467.0
0.0,0.0 1116.0,0.0 1116.0,894.0 0.0,894.0
0.0,0.0 241.0,0.0 241.0,685.0 0.0,685.0
0.0,0.0 1587.0,0.0 1587.0,645.0 0.0,645.0
0.0,0.0 1570.0,0.0 1570.0,1032.0 0.0,1032.0
0.0,0.0 258.0,0.0 258.0,964.0 0.0,964.0
0.0,0.0 2000.0,0.0 2000.0,277.0 0.0,277.0
0.0,0.0 592.0,0.0 592.0,323.0 0.0,323.0
0.0,0.0 1886.0,0.0 1886.0,190.0 0.0,190.0
0.0,0.0 271.0,0.0 271.0,894.0 0.0,894.0
0.0,0.0 1784.0,0.0 1784.0,27.0 0.0,27.0
0.0,0.0 1769.0,0.0 1769.0,1158.0 0.0,1158.0
0.0,0.0 1769.0,0.0 1769.0,1097.0 0.0,1097.0
0.0,0.0 642.0,0.0 642.0,449.0 0.0,449.0
0.0,0.0 1837.0,0.0 1837.0,376.0 0.0,376.0
0.0,0.0 1821.0,0.0 1821.0,252.0 0.0,252.0
0.0,0.0 1857.0,0.0 1857.0,1028.0 0.0,1028.0
0.0,0.0 1787.0,0.0 1787.0,1134.0 0.0,1134.0
0.0,0.0 327.0,0.0 327.0,602.0 0.0,602.0
0.0,0.0 1773.0,0.0 1773.0,511.0 0.0,511.0
0.0,0.0 885.0,0.0 885.0,923.0 0.0,923.0
0.0,0.0 619.0,0.0 619.0,1066.0 0.0,1066.0
0.0,0.0 1581.0,0.0 1581.0,114.0 0.0,114.0
0.0,0.0 1598.0,0.0 1598.0,384.0 0.0,384.0